p cnf 245 2776
1 2 3 4 5 6 7 0
8 9 10 11 12 13 14 0
15 16 17 18 19 20 21 0
22 23 24 25 26 27 28 0
29 30 31 32 33 34 35 0
36 37 38 39 40 41 42 0
43 44 45 46 47 48 49 0
50 51 52 53 54 55 56 0
57 58 59 60 61 62 63 0
64 65 66 67 68 69 70 0
71 72 73 74 75 76 77 0
78 79 80 81 82 83 84 0
85 86 87 88 89 90 91 0
92 93 94 95 96 97 98 0
99 100 101 102 103 104 105 0
106 107 108 109 110 111 112 0
113 114 115 116 117 118 119 0
120 121 122 123 124 125 126 0
127 128 129 130 131 132 133 0
134 135 136 137 138 139 140 0
141 142 143 144 145 146 147 0
148 149 150 151 152 153 154 0
155 156 157 158 159 160 161 0
162 163 164 165 166 167 168 0
169 170 171 172 173 174 175 0
176 177 178 179 180 181 182 0
183 184 185 186 187 188 189 0
190 191 192 193 194 195 196 0
197 198 199 200 201 202 203 0
204 205 206 207 208 209 210 0
211 212 213 214 215 216 217 0
218 219 220 221 222 223 224 0
225 226 227 228 229 230 231 0
232 233 234 235 236 237 238 0
239 240 241 242 243 244 245 0
-1 -2 0
-1 -3 0
-1 -4 0
-1 -5 0
-1 -6 0
-1 -7 0
-2 -3 0
-2 -4 0
-2 -5 0
-2 -6 0
-2 -7 0
-3 -4 0
-3 -5 0
-3 -6 0
-3 -7 0
-4 -5 0
-4 -6 0
-4 -7 0
-5 -6 0
-5 -7 0
-6 -7 0
-8 -9 0
-8 -10 0
-8 -11 0
-8 -12 0
-8 -13 0
-8 -14 0
-9 -10 0
-9 -11 0
-9 -12 0
-9 -13 0
-9 -14 0
-10 -11 0
-10 -12 0
-10 -13 0
-10 -14 0
-11 -12 0
-11 -13 0
-11 -14 0
-12 -13 0
-12 -14 0
-13 -14 0
-15 -16 0
-15 -17 0
-15 -18 0
-15 -19 0
-15 -20 0
-15 -21 0
-16 -17 0
-16 -18 0
-16 -19 0
-16 -20 0
-16 -21 0
-17 -18 0
-17 -19 0
-17 -20 0
-17 -21 0
-18 -19 0
-18 -20 0
-18 -21 0
-19 -20 0
-19 -21 0
-20 -21 0
-22 -23 0
-22 -24 0
-22 -25 0
-22 -26 0
-22 -27 0
-22 -28 0
-23 -24 0
-23 -25 0
-23 -26 0
-23 -27 0
-23 -28 0
-24 -25 0
-24 -26 0
-24 -27 0
-24 -28 0
-25 -26 0
-25 -27 0
-25 -28 0
-26 -27 0
-26 -28 0
-27 -28 0
-29 -30 0
-29 -31 0
-29 -32 0
-29 -33 0
-29 -34 0
-29 -35 0
-30 -31 0
-30 -32 0
-30 -33 0
-30 -34 0
-30 -35 0
-31 -32 0
-31 -33 0
-31 -34 0
-31 -35 0
-32 -33 0
-32 -34 0
-32 -35 0
-33 -34 0
-33 -35 0
-34 -35 0
-36 -37 0
-36 -38 0
-36 -39 0
-36 -40 0
-36 -41 0
-36 -42 0
-37 -38 0
-37 -39 0
-37 -40 0
-37 -41 0
-37 -42 0
-38 -39 0
-38 -40 0
-38 -41 0
-38 -42 0
-39 -40 0
-39 -41 0
-39 -42 0
-40 -41 0
-40 -42 0
-41 -42 0
-43 -44 0
-43 -45 0
-43 -46 0
-43 -47 0
-43 -48 0
-43 -49 0
-44 -45 0
-44 -46 0
-44 -47 0
-44 -48 0
-44 -49 0
-45 -46 0
-45 -47 0
-45 -48 0
-45 -49 0
-46 -47 0
-46 -48 0
-46 -49 0
-47 -48 0
-47 -49 0
-48 -49 0
-50 -51 0
-50 -52 0
-50 -53 0
-50 -54 0
-50 -55 0
-50 -56 0
-51 -52 0
-51 -53 0
-51 -54 0
-51 -55 0
-51 -56 0
-52 -53 0
-52 -54 0
-52 -55 0
-52 -56 0
-53 -54 0
-53 -55 0
-53 -56 0
-54 -55 0
-54 -56 0
-55 -56 0
-57 -58 0
-57 -59 0
-57 -60 0
-57 -61 0
-57 -62 0
-57 -63 0
-58 -59 0
-58 -60 0
-58 -61 0
-58 -62 0
-58 -63 0
-59 -60 0
-59 -61 0
-59 -62 0
-59 -63 0
-60 -61 0
-60 -62 0
-60 -63 0
-61 -62 0
-61 -63 0
-62 -63 0
-64 -65 0
-64 -66 0
-64 -67 0
-64 -68 0
-64 -69 0
-64 -70 0
-65 -66 0
-65 -67 0
-65 -68 0
-65 -69 0
-65 -70 0
-66 -67 0
-66 -68 0
-66 -69 0
-66 -70 0
-67 -68 0
-67 -69 0
-67 -70 0
-68 -69 0
-68 -70 0
-69 -70 0
-71 -72 0
-71 -73 0
-71 -74 0
-71 -75 0
-71 -76 0
-71 -77 0
-72 -73 0
-72 -74 0
-72 -75 0
-72 -76 0
-72 -77 0
-73 -74 0
-73 -75 0
-73 -76 0
-73 -77 0
-74 -75 0
-74 -76 0
-74 -77 0
-75 -76 0
-75 -77 0
-76 -77 0
-78 -79 0
-78 -80 0
-78 -81 0
-78 -82 0
-78 -83 0
-78 -84 0
-79 -80 0
-79 -81 0
-79 -82 0
-79 -83 0
-79 -84 0
-80 -81 0
-80 -82 0
-80 -83 0
-80 -84 0
-81 -82 0
-81 -83 0
-81 -84 0
-82 -83 0
-82 -84 0
-83 -84 0
-85 -86 0
-85 -87 0
-85 -88 0
-85 -89 0
-85 -90 0
-85 -91 0
-86 -87 0
-86 -88 0
-86 -89 0
-86 -90 0
-86 -91 0
-87 -88 0
-87 -89 0
-87 -90 0
-87 -91 0
-88 -89 0
-88 -90 0
-88 -91 0
-89 -90 0
-89 -91 0
-90 -91 0
-92 -93 0
-92 -94 0
-92 -95 0
-92 -96 0
-92 -97 0
-92 -98 0
-93 -94 0
-93 -95 0
-93 -96 0
-93 -97 0
-93 -98 0
-94 -95 0
-94 -96 0
-94 -97 0
-94 -98 0
-95 -96 0
-95 -97 0
-95 -98 0
-96 -97 0
-96 -98 0
-97 -98 0
-99 -100 0
-99 -101 0
-99 -102 0
-99 -103 0
-99 -104 0
-99 -105 0
-100 -101 0
-100 -102 0
-100 -103 0
-100 -104 0
-100 -105 0
-101 -102 0
-101 -103 0
-101 -104 0
-101 -105 0
-102 -103 0
-102 -104 0
-102 -105 0
-103 -104 0
-103 -105 0
-104 -105 0
-106 -107 0
-106 -108 0
-106 -109 0
-106 -110 0
-106 -111 0
-106 -112 0
-107 -108 0
-107 -109 0
-107 -110 0
-107 -111 0
-107 -112 0
-108 -109 0
-108 -110 0
-108 -111 0
-108 -112 0
-109 -110 0
-109 -111 0
-109 -112 0
-110 -111 0
-110 -112 0
-111 -112 0
-113 -114 0
-113 -115 0
-113 -116 0
-113 -117 0
-113 -118 0
-113 -119 0
-114 -115 0
-114 -116 0
-114 -117 0
-114 -118 0
-114 -119 0
-115 -116 0
-115 -117 0
-115 -118 0
-115 -119 0
-116 -117 0
-116 -118 0
-116 -119 0
-117 -118 0
-117 -119 0
-118 -119 0
-120 -121 0
-120 -122 0
-120 -123 0
-120 -124 0
-120 -125 0
-120 -126 0
-121 -122 0
-121 -123 0
-121 -124 0
-121 -125 0
-121 -126 0
-122 -123 0
-122 -124 0
-122 -125 0
-122 -126 0
-123 -124 0
-123 -125 0
-123 -126 0
-124 -125 0
-124 -126 0
-125 -126 0
-127 -128 0
-127 -129 0
-127 -130 0
-127 -131 0
-127 -132 0
-127 -133 0
-128 -129 0
-128 -130 0
-128 -131 0
-128 -132 0
-128 -133 0
-129 -130 0
-129 -131 0
-129 -132 0
-129 -133 0
-130 -131 0
-130 -132 0
-130 -133 0
-131 -132 0
-131 -133 0
-132 -133 0
-134 -135 0
-134 -136 0
-134 -137 0
-134 -138 0
-134 -139 0
-134 -140 0
-135 -136 0
-135 -137 0
-135 -138 0
-135 -139 0
-135 -140 0
-136 -137 0
-136 -138 0
-136 -139 0
-136 -140 0
-137 -138 0
-137 -139 0
-137 -140 0
-138 -139 0
-138 -140 0
-139 -140 0
-141 -142 0
-141 -143 0
-141 -144 0
-141 -145 0
-141 -146 0
-141 -147 0
-142 -143 0
-142 -144 0
-142 -145 0
-142 -146 0
-142 -147 0
-143 -144 0
-143 -145 0
-143 -146 0
-143 -147 0
-144 -145 0
-144 -146 0
-144 -147 0
-145 -146 0
-145 -147 0
-146 -147 0
-148 -149 0
-148 -150 0
-148 -151 0
-148 -152 0
-148 -153 0
-148 -154 0
-149 -150 0
-149 -151 0
-149 -152 0
-149 -153 0
-149 -154 0
-150 -151 0
-150 -152 0
-150 -153 0
-150 -154 0
-151 -152 0
-151 -153 0
-151 -154 0
-152 -153 0
-152 -154 0
-153 -154 0
-155 -156 0
-155 -157 0
-155 -158 0
-155 -159 0
-155 -160 0
-155 -161 0
-156 -157 0
-156 -158 0
-156 -159 0
-156 -160 0
-156 -161 0
-157 -158 0
-157 -159 0
-157 -160 0
-157 -161 0
-158 -159 0
-158 -160 0
-158 -161 0
-159 -160 0
-159 -161 0
-160 -161 0
-162 -163 0
-162 -164 0
-162 -165 0
-162 -166 0
-162 -167 0
-162 -168 0
-163 -164 0
-163 -165 0
-163 -166 0
-163 -167 0
-163 -168 0
-164 -165 0
-164 -166 0
-164 -167 0
-164 -168 0
-165 -166 0
-165 -167 0
-165 -168 0
-166 -167 0
-166 -168 0
-167 -168 0
-169 -170 0
-169 -171 0
-169 -172 0
-169 -173 0
-169 -174 0
-169 -175 0
-170 -171 0
-170 -172 0
-170 -173 0
-170 -174 0
-170 -175 0
-171 -172 0
-171 -173 0
-171 -174 0
-171 -175 0
-172 -173 0
-172 -174 0
-172 -175 0
-173 -174 0
-173 -175 0
-174 -175 0
-176 -177 0
-176 -178 0
-176 -179 0
-176 -180 0
-176 -181 0
-176 -182 0
-177 -178 0
-177 -179 0
-177 -180 0
-177 -181 0
-177 -182 0
-178 -179 0
-178 -180 0
-178 -181 0
-178 -182 0
-179 -180 0
-179 -181 0
-179 -182 0
-180 -181 0
-180 -182 0
-181 -182 0
-183 -184 0
-183 -185 0
-183 -186 0
-183 -187 0
-183 -188 0
-183 -189 0
-184 -185 0
-184 -186 0
-184 -187 0
-184 -188 0
-184 -189 0
-185 -186 0
-185 -187 0
-185 -188 0
-185 -189 0
-186 -187 0
-186 -188 0
-186 -189 0
-187 -188 0
-187 -189 0
-188 -189 0
-190 -191 0
-190 -192 0
-190 -193 0
-190 -194 0
-190 -195 0
-190 -196 0
-191 -192 0
-191 -193 0
-191 -194 0
-191 -195 0
-191 -196 0
-192 -193 0
-192 -194 0
-192 -195 0
-192 -196 0
-193 -194 0
-193 -195 0
-193 -196 0
-194 -195 0
-194 -196 0
-195 -196 0
-197 -198 0
-197 -199 0
-197 -200 0
-197 -201 0
-197 -202 0
-197 -203 0
-198 -199 0
-198 -200 0
-198 -201 0
-198 -202 0
-198 -203 0
-199 -200 0
-199 -201 0
-199 -202 0
-199 -203 0
-200 -201 0
-200 -202 0
-200 -203 0
-201 -202 0
-201 -203 0
-202 -203 0
-204 -205 0
-204 -206 0
-204 -207 0
-204 -208 0
-204 -209 0
-204 -210 0
-205 -206 0
-205 -207 0
-205 -208 0
-205 -209 0
-205 -210 0
-206 -207 0
-206 -208 0
-206 -209 0
-206 -210 0
-207 -208 0
-207 -209 0
-207 -210 0
-208 -209 0
-208 -210 0
-209 -210 0
-211 -212 0
-211 -213 0
-211 -214 0
-211 -215 0
-211 -216 0
-211 -217 0
-212 -213 0
-212 -214 0
-212 -215 0
-212 -216 0
-212 -217 0
-213 -214 0
-213 -215 0
-213 -216 0
-213 -217 0
-214 -215 0
-214 -216 0
-214 -217 0
-215 -216 0
-215 -217 0
-216 -217 0
-218 -219 0
-218 -220 0
-218 -221 0
-218 -222 0
-218 -223 0
-218 -224 0
-219 -220 0
-219 -221 0
-219 -222 0
-219 -223 0
-219 -224 0
-220 -221 0
-220 -222 0
-220 -223 0
-220 -224 0
-221 -222 0
-221 -223 0
-221 -224 0
-222 -223 0
-222 -224 0
-223 -224 0
-225 -226 0
-225 -227 0
-225 -228 0
-225 -229 0
-225 -230 0
-225 -231 0
-226 -227 0
-226 -228 0
-226 -229 0
-226 -230 0
-226 -231 0
-227 -228 0
-227 -229 0
-227 -230 0
-227 -231 0
-228 -229 0
-228 -230 0
-228 -231 0
-229 -230 0
-229 -231 0
-230 -231 0
-232 -233 0
-232 -234 0
-232 -235 0
-232 -236 0
-232 -237 0
-232 -238 0
-233 -234 0
-233 -235 0
-233 -236 0
-233 -237 0
-233 -238 0
-234 -235 0
-234 -236 0
-234 -237 0
-234 -238 0
-235 -236 0
-235 -237 0
-235 -238 0
-236 -237 0
-236 -238 0
-237 -238 0
-239 -240 0
-239 -241 0
-239 -242 0
-239 -243 0
-239 -244 0
-239 -245 0
-240 -241 0
-240 -242 0
-240 -243 0
-240 -244 0
-240 -245 0
-241 -242 0
-241 -243 0
-241 -244 0
-241 -245 0
-242 -243 0
-242 -244 0
-242 -245 0
-243 -244 0
-243 -245 0
-244 -245 0
-3 -82 0
-2 -80 0
-6 -80 0
-5 -79 0
-2 -84 0
-5 -81 0
-4 -82 0
-4 -80 0
-1 -80 0
-7 -79 0
-6 -78 0
-1 -81 0
-6 -83 0
-7 -83 0
-2 -79 0
-3 -83 0
-5 -80 0
-7 -80 0
-2 -81 0
-5 -84 0
-3 -81 0
-1 -83 0
-4 -79 0
-4 -83 0
-7 -81 0
-1 -79 0
-2 -82 0
-1 -78 0
-4 -84 0
-4 -81 0
-7 -78 0
-5 -82 0
-2 -83 0
-3 -80 0
-4 -150 0
-7 -151 0
-2 -152 0
-3 -149 0
-2 -151 0
-4 -149 0
-4 -152 0
-6 -153 0
-5 -148 0
-2 -150 0
-1 -153 0
-5 -151 0
-6 -151 0
-7 -148 0
-6 -152 0
-1 -151 0
-4 -154 0
-2 -148 0
-3 -154 0
-1 -152 0
-1 -150 0
-1 -148 0
-7 -149 0
-3 -151 0
-1 -149 0
-4 -153 0
-3 -148 0
-7 -154 0
-6 -148 0
-5 -154 0
-5 -150 0
-6 -154 0
-6 -149 0
-7 -152 0
-4 -179 0
-7 -179 0
-7 -177 0
-5 -176 0
-6 -177 0
-5 -178 0
-4 -178 0
-1 -179 0
-5 -182 0
-4 -180 0
-2 -176 0
-6 -180 0
-4 -181 0
-3 -179 0
-2 -178 0
-6 -181 0
-4 -177 0
-5 -181 0
-5 -180 0
-2 -181 0
-1 -180 0
-1 -181 0
-6 -179 0
-3 -177 0
-3 -181 0
-3 -180 0
-3 -182 0
-2 -180 0
-6 -176 0
-2 -182 0
-5 -177 0
-1 -176 0
-6 -182 0
-7 -176 0
-4 -221 0
-5 -220 0
-7 -220 0
-1 -223 0
-2 -220 0
-6 -221 0
-7 -221 0
-1 -219 0
-7 -222 0
-5 -222 0
-1 -222 0
-6 -218 0
-5 -221 0
-7 -219 0
-5 -224 0
-1 -224 0
-5 -223 0
-1 -220 0
-4 -220 0
-4 -223 0
-2 -222 0
-4 -222 0
-6 -219 0
-6 -222 0
-6 -223 0
-7 -224 0
-3 -218 0
-4 -219 0
-3 -223 0
-4 -218 0
-1 -221 0
-5 -218 0
-3 -224 0
-5 -219 0
-9 -221 0
-14 -220 0
-8 -221 0
-13 -221 0
-12 -223 0
-11 -220 0
-14 -222 0
-14 -223 0
-13 -224 0
-12 -218 0
-13 -223 0
-14 -224 0
-12 -221 0
-13 -222 0
-14 -219 0
-10 -222 0
-12 -222 0
-13 -220 0
-10 -218 0
-11 -221 0
-11 -218 0
-13 -218 0
-11 -222 0
-8 -222 0
-10 -221 0
-8 -223 0
-8 -220 0
-10 -223 0
-14 -218 0
-9 -224 0
-10 -219 0
-9 -220 0
-13 -219 0
-9 -223 0
-11 -235 0
-10 -234 0
-8 -238 0
-14 -236 0
-14 -232 0
-14 -238 0
-12 -237 0
-12 -234 0
-8 -233 0
-13 -233 0
-13 -236 0
-10 -232 0
-13 -232 0
-11 -232 0
-14 -233 0
-9 -237 0
-10 -233 0
-14 -235 0
-10 -235 0
-8 -235 0
-11 -238 0
-12 -238 0
-12 -233 0
-9 -235 0
-12 -236 0
-8 -237 0
-14 -237 0
-9 -234 0
-10 -238 0
-9 -236 0
-11 -237 0
-11 -236 0
-10 -237 0
-13 -238 0
-20 -70 0
-15 -66 0
-19 -70 0
-18 -67 0
-18 -70 0
-21 -67 0
-21 -70 0
-16 -69 0
-19 -65 0
-17 -64 0
-15 -70 0
-21 -65 0
-17 -68 0
-17 -67 0
-16 -65 0
-18 -65 0
-18 -66 0
-16 -64 0
-18 -68 0
-17 -66 0
-15 -67 0
-16 -66 0
-20 -67 0
-18 -69 0
-15 -69 0
-16 -68 0
-21 -64 0
-17 -65 0
-19 -64 0
-19 -67 0
-15 -64 0
-20 -65 0
-20 -68 0
-18 -64 0
-21 -153 0
-19 -151 0
-18 -151 0
-17 -151 0
-21 -154 0
-15 -151 0
-18 -148 0
-19 -150 0
-20 -154 0
-19 -153 0
-15 -154 0
-18 -150 0
-18 -149 0
-15 -148 0
-18 -154 0
-16 -149 0
-16 -152 0
-15 -153 0
-19 -154 0
-20 -149 0
-18 -153 0
-21 -150 0
-17 -150 0
-17 -152 0
-21 -152 0
-16 -153 0
-16 -154 0
-19 -149 0
-16 -151 0
-16 -148 0
-15 -149 0
-19 -152 0
-18 -152 0
-17 -153 0
-23 -93 0
-27 -98 0
-27 -92 0
-23 -97 0
-25 -93 0
-24 -92 0
-26 -94 0
-28 -94 0
-25 -96 0
-28 -98 0
-25 -94 0
-22 -96 0
-24 -98 0
-27 -96 0
-26 -96 0
-26 -97 0
-27 -93 0
-24 -94 0
-23 -96 0
-27 -94 0
-22 -94 0
-24 -97 0
-28 -97 0
-23 -94 0
-26 -92 0
-24 -95 0
-22 -92 0
-28 -95 0
-25 -95 0
-28 -92 0
-27 -95 0
-22 -93 0
-25 -98 0
-24 -93 0
-25 -150 0
-22 -149 0
-28 -151 0
-27 -148 0
-23 -151 0
-28 -150 0
-25 -149 0
-24 -152 0
-28 -154 0
-25 -148 0
-27 -150 0
-27 -154 0
-28 -153 0
-24 -150 0
-25 -153 0
-26 -152 0
-26 -149 0
-24 -154 0
-27 -152 0
-26 -154 0
-25 -152 0
-25 -154 0
-27 -151 0
-23 -153 0
-22 -148 0
-24 -153 0
-24 -148 0
-26 -153 0
-22 -151 0
-22 -154 0
-24 -151 0
-27 -149 0
-22 -150 0
-22 -152 0
-26 -179 0
-24 -176 0
-28 -181 0
-22 -182 0
-24 -180 0
-26 -181 0
-27 -182 0
-26 -177 0
-28 -176 0
-27 -181 0
-25 -177 0
-26 -176 0
-23 -176 0
-23 -179 0
-26 -182 0
-28 -182 0
-22 -181 0
-24 -177 0
-27 -179 0
-27 -178 0
-26 -180 0
-25 -176 0
-24 -178 0
-23 -180 0
-28 -180 0
-25 -179 0
-25 -178 0
-25 -181 0
-24 -182 0
-27 -180 0
-24 -179 0
-22 -177 0
-27 -177 0
-25 -180 0
-24 -217 0
-24 -212 0
-27 -212 0
-24 -211 0
-27 -214 0
-26 -211 0
-24 -213 0
-23 -211 0
-25 -217 0
-22 -214 0
-26 -215 0
-23 -215 0
-27 -215 0
-28 -216 0
-27 -211 0
-22 -216 0
-23 -214 0
-23 -212 0
-26 -217 0
-28 -217 0
-24 -216 0
-27 -216 0
-25 -211 0
-22 -211 0
-25 -213 0
-22 -217 0
-25 -214 0
-24 -215 0
-27 -217 0
-25 -216 0
-28 -212 0
-23 -217 0
-28 -215 0
-24 -214 0
-29 -36 0
-31 -40 0
-30 -40 0
-32 -42 0
-32 -39 0
-31 -36 0
-31 -37 0
-34 -37 0
-30 -41 0
-34 -40 0
-33 -38 0
-33 -36 0
-34 -39 0
-30 -37 0
-30 -38 0
-31 -39 0
-35 -39 0
-35 -40 0
-33 -37 0
-34 -38 0
-34 -42 0
-35 -42 0
-29 -40 0
-29 -39 0
-35 -41 0
-35 -36 0
-33 -42 0
-35 -37 0
-29 -38 0
-32 -38 0
-31 -41 0
-29 -37 0
-30 -39 0
-32 -41 0
-35 -64 0
-32 -65 0
-32 -66 0
-32 -70 0
-34 -70 0
-34 -64 0
-35 -67 0
-30 -70 0
-29 -65 0
-30 -69 0
-34 -69 0
-30 -65 0
-33 -67 0
-32 -67 0
-35 -65 0
-35 -70 0
-33 -64 0
-31 -67 0
-33 -68 0
-33 -65 0
-35 -69 0
-35 -68 0
-29 -69 0
-31 -65 0
-29 -67 0
-32 -68 0
-32 -64 0
-29 -64 0
-35 -66 0
-31 -68 0
-31 -64 0
-34 -65 0
-29 -66 0
-34 -66 0
-32 -105 0
-35 -101 0
-29 -100 0
-31 -105 0
-31 -99 0
-34 -102 0
-34 -103 0
-30 -105 0
-32 -100 0
-30 -101 0
-29 -104 0
-29 -99 0
-32 -101 0
-35 -104 0
-33 -103 0
-31 -100 0
-33 -104 0
-34 -100 0
-33 -102 0
-31 -102 0
-31 -103 0
-35 -105 0
-32 -104 0
-34 -101 0
-33 -105 0
-33 -101 0
-29 -102 0
-30 -99 0
-34 -99 0
-31 -104 0
-29 -101 0
-31 -101 0
-35 -102 0
-35 -99 0
-33 -171 0
-33 -174 0
-29 -171 0
-30 -172 0
-33 -173 0
-35 -171 0
-33 -169 0
-31 -173 0
-31 -175 0
-29 -172 0
-33 -172 0
-30 -171 0
-30 -173 0
-34 -171 0
-31 -172 0
-35 -170 0
-35 -175 0
-29 -170 0
-33 -175 0
-30 -169 0
-35 -173 0
-32 -170 0
-31 -171 0
-34 -175 0
-31 -169 0
-34 -173 0
-35 -174 0
-32 -169 0
-29 -169 0
-35 -169 0
-31 -170 0
-29 -175 0
-32 -173 0
-35 -172 0
-30 -195 0
-34 -193 0
-34 -191 0
-31 -196 0
-35 -195 0
-35 -190 0
-29 -196 0
-32 -196 0
-29 -191 0
-29 -190 0
-32 -192 0
-34 -196 0
-35 -191 0
-32 -190 0
-35 -192 0
-32 -191 0
-32 -194 0
-31 -190 0
-33 -194 0
-32 -195 0
-30 -192 0
-31 -193 0
-32 -193 0
-34 -192 0
-29 -195 0
-35 -194 0
-30 -191 0
-33 -196 0
-33 -193 0
-33 -195 0
-31 -192 0
-34 -195 0
-31 -195 0
-33 -192 0
-32 -208 0
-35 -209 0
-35 -205 0
-34 -210 0
-29 -206 0
-34 -208 0
-34 -207 0
-35 -204 0
-32 -209 0
-33 -205 0
-35 -210 0
-31 -210 0
-32 -204 0
-33 -206 0
-32 -210 0
-33 -207 0
-30 -204 0
-33 -209 0
-31 -208 0
-33 -210 0
-30 -209 0
-35 -208 0
-30 -207 0
-29 -209 0
-30 -210 0
-30 -208 0
-31 -209 0
-34 -204 0
-32 -205 0
-33 -208 0
-30 -206 0
-30 -205 0
-32 -206 0
-34 -209 0
-36 -74 0
-42 -75 0
-42 -72 0
-36 -77 0
-39 -72 0
-41 -76 0
-38 -73 0
-37 -71 0
-36 -75 0
-39 -73 0
-37 -73 0
-39 -76 0
-41 -72 0
-40 -72 0
-39 -74 0
-37 -74 0
-42 -73 0
-36 -72 0
-37 -77 0
-38 -76 0
-42 -71 0
-42 -74 0
-39 -71 0
-38 -75 0
-39 -77 0
-38 -77 0
-37 -76 0
-41 -73 0
-36 -71 0
-40 -73 0
-40 -74 0
-40 -71 0
-37 -75 0
-41 -71 0
-46 -81 0
-44 -78 0
-49 -78 0
-44 -79 0
-45 -78 0
-47 -81 0
-47 -83 0
-43 -82 0
-44 -80 0
-43 -80 0
-45 -82 0
-49 -81 0
-48 -82 0
-49 -83 0
-43 -84 0
-47 -80 0
-44 -84 0
-44 -81 0
-46 -79 0
-46 -80 0
-46 -83 0
-44 -82 0
-43 -81 0
-48 -78 0
-48 -84 0
-48 -80 0
-43 -83 0
-45 -79 0
-49 -84 0
-45 -84 0
-44 -83 0
-49 -82 0
-47 -78 0
-46 -78 0
-47 -102 0
-48 -104 0
-45 -100 0
-44 -105 0
-43 -105 0
-48 -99 0
-46 -102 0
-48 -105 0
-44 -99 0
-47 -101 0
-49 -99 0
-48 -103 0
-43 -102 0
-46 -104 0
-46 -101 0
-44 -100 0
-49 -103 0
-46 -99 0
-49 -101 0
-49 -102 0
-44 -101 0
-48 -102 0
-43 -101 0
-45 -102 0
-49 -105 0
-47 -99 0
-45 -104 0
-45 -99 0
-43 -100 0
-47 -103 0
-45 -105 0
-43 -103 0
-47 -105 0
-43 -104 0
-49 -155 0
-48 -160 0
-46 -155 0
-46 -157 0
-46 -158 0
-47 -156 0
-44 -156 0
-48 -159 0
-47 -160 0
-44 -158 0
-44 -155 0
-48 -158 0
-47 -161 0
-45 -155 0
-45 -160 0
-46 -160 0
-49 -160 0
-48 -156 0
-48 -155 0
-45 -161 0
-46 -156 0
-43 -157 0
-47 -155 0
-45 -159 0
-43 -159 0
-44 -157 0
-45 -156 0
-47 -159 0
-45 -157 0
-49 -159 0
-48 -161 0
-49 -156 0
-43 -158 0
-44 -159 0
-52 -108 0
-55 -109 0
-53 -107 0
-51 -107 0
-56 -110 0
-53 -108 0
-53 -110 0
-52 -111 0
-54 -106 0
-54 -108 0
-52 -107 0
-54 -112 0
-55 -106 0
-52 -112 0
-51 -108 0
-50 -107 0
-53 -111 0
-53 -112 0
-54 -107 0
-56 -111 0
-55 -108 0
-55 -111 0
-54 -110 0
-51 -112 0
-53 -106 0
-56 -109 0
-50 -106 0
-50 -111 0
-52 -110 0
-51 -109 0
-55 -110 0
-56 -108 0
-52 -109 0
-51 -110 0
-56 -233 0
-50 -237 0
-54 -233 0
-53 -235 0
-51 -236 0
-53 -233 0
-52 -234 0
-51 -234 0
-50 -235 0
-53 -236 0
-54 -234 0
-54 -236 0
-55 -235 0
-50 -232 0
-52 -232 0
-50 -233 0
-55 -232 0
-56 -236 0
-55 -234 0
-53 -237 0
-52 -237 0
-55 -233 0
-56 -238 0
-50 -234 0
-56 -232 0
-51 -233 0
-51 -238 0
-52 -233 0
-50 -236 0
-53 -232 0
-50 -238 0
-53 -234 0
-51 -237 0
-51 -235 0
-52 -240 0
-56 -243 0
-53 -240 0
-52 -242 0
-50 -242 0
-50 -245 0
-55 -244 0
-56 -244 0
-52 -241 0
-54 -242 0
-55 -243 0
-54 -243 0
-56 -245 0
-55 -241 0
-52 -243 0
-50 -239 0
-54 -244 0
-53 -244 0
-53 -243 0
-53 -245 0
-52 -245 0
-55 -239 0
-54 -240 0
-51 -244 0
-51 -242 0
-50 -244 0
-51 -245 0
-56 -242 0
-54 -239 0
-52 -239 0
-55 -240 0
-51 -241 0
-50 -241 0
-51 -240 0
-59 -102 0
-59 -104 0
-58 -104 0
-59 -105 0
-61 -100 0
-62 -104 0
-60 -100 0
-60 -103 0
-57 -105 0
-63 -105 0
-60 -101 0
-63 -103 0
-58 -99 0
-61 -103 0
-60 -104 0
-63 -99 0
-63 -104 0
-62 -103 0
-62 -99 0
-62 -101 0
-60 -102 0
-63 -102 0
-57 -102 0
-58 -101 0
-60 -99 0
-57 -100 0
-59 -101 0
-59 -103 0
-61 -104 0
-59 -99 0
-58 -105 0
-61 -101 0
-57 -99 0
-60 -105 0
-58 -156 0
-62 -158 0
-61 -156 0
-63 -160 0
-60 -156 0
-57 -156 0
-62 -155 0
-62 -160 0
-60 -155 0
-61 -159 0
-58 -157 0
-61 -157 0
-58 -161 0
-57 -157 0
-59 -156 0
-63 -159 0
-63 -161 0
-62 -161 0
-63 -157 0
-63 -155 0
-58 -159 0
-59 -155 0
-59 -158 0
-60 -160 0
-59 -161 0
-63 -158 0
-60 -157 0
-57 -158 0
-57 -161 0
-57 -160 0
-61 -155 0
-62 -156 0
-57 -155 0
-61 -158 0
-65 -96 0
-68 -93 0
-66 -98 0
-70 -94 0
-69 -95 0
-64 -96 0
-66 -96 0
-69 -97 0
-64 -98 0
-68 -97 0
-66 -97 0
-70 -98 0
-70 -95 0
-68 -96 0
-66 -94 0
-68 -98 0
-69 -96 0
-64 -92 0
-67 -93 0
-65 -95 0
-69 -93 0
-64 -95 0
-64 -94 0
-67 -98 0
-66 -95 0
-67 -96 0
-67 -92 0
-64 -97 0
-69 -98 0
-67 -97 0
-67 -94 0
-70 -97 0
-67 -95 0
-65 -92 0
-65 -132 0
-70 -127 0
-70 -129 0
-70 -131 0
-68 -132 0
-67 -132 0
-65 -129 0
-65 -131 0
-65 -133 0
-67 -131 0
-69 -132 0
-64 -129 0
-66 -128 0
-68 -127 0
-66 -127 0
-68 -129 0
-69 -131 0
-70 -133 0
-67 -129 0
-69 -128 0
-69 -130 0
-66 -133 0
-68 -133 0
-70 -128 0
-68 -130 0
-70 -130 0
-69 -133 0
-64 -130 0
-70 -132 0
-68 -131 0
-67 -130 0
-64 -128 0
-65 -130 0
-64 -131 0
-71 -163 0
-75 -166 0
-72 -165 0
-73 -162 0
-74 -167 0
-77 -163 0
-73 -165 0
-76 -164 0
-71 -164 0
-77 -162 0
-71 -167 0
-76 -167 0
-77 -167 0
-74 -166 0
-72 -162 0
-74 -165 0
-71 -162 0
-73 -163 0
-74 -164 0
-75 -165 0
-77 -166 0
-74 -168 0
-77 -164 0
-71 -168 0
-73 -167 0
-76 -165 0
-75 -167 0
-73 -164 0
-76 -163 0
-72 -168 0
-75 -163 0
-75 -164 0
-76 -168 0
-71 -166 0
-79 -219 0
-80 -222 0
-80 -218 0
-80 -223 0
-78 -220 0
-80 -219 0
-79 -220 0
-81 -223 0
-81 -222 0
-84 -223 0
-83 -220 0
-84 -224 0
-78 -219 0
-83 -222 0
-81 -220 0
-84 -221 0
-79 -222 0
-83 -221 0
-82 -224 0
-82 -222 0
-83 -218 0
-84 -220 0
-82 -219 0
-83 -224 0
-84 -222 0
-84 -219 0
-78 -221 0
-83 -223 0
-83 -219 0
-82 -218 0
-81 -224 0
-82 -221 0
-78 -218 0
-81 -218 0
-80 -244 0
-82 -239 0
-80 -240 0
-84 -245 0
-79 -240 0
-82 -245 0
-79 -245 0
-84 -239 0
-81 -243 0
-84 -240 0
-79 -244 0
-78 -240 0
-80 -243 0
-81 -240 0
-80 -239 0
-78 -241 0
-79 -242 0
-79 -239 0
-83 -245 0
-84 -241 0
-83 -241 0
-83 -244 0
-84 -244 0
-84 -243 0
-81 -239 0
-80 -242 0
-78 -245 0
-78 -242 0
-82 -242 0
-79 -241 0
-82 -240 0
-82 -241 0
-84 -242 0
-78 -244 0
-89 -96 0
-86 -92 0
-89 -92 0
-90 -97 0
-87 -96 0
-87 -97 0
-85 -93 0
-90 -92 0
-86 -98 0
-88 -96 0
-91 -96 0
-86 -93 0
-85 -97 0
-85 -94 0
-91 -94 0
-87 -92 0
-86 -96 0
-87 -94 0
-91 -92 0
-89 -94 0
-89 -95 0
-91 -97 0
-86 -97 0
-85 -95 0
-85 -96 0
-90 -96 0
-89 -97 0
-90 -95 0
-90 -93 0
-88 -97 0
-91 -95 0
-91 -93 0
-89 -93 0
-85 -98 0
-91 -186 0
-85 -189 0
-90 -185 0
-89 -186 0
-91 -188 0
-86 -188 0
-86 -183 0
-88 -186 0
-90 -187 0
-88 -183 0
-89 -183 0
-85 -187 0
-87 -184 0
-90 -183 0
-91 -184 0
-86 -184 0
-89 -188 0
-91 -183 0
-88 -184 0
-90 -188 0
-89 -184 0
-88 -185 0
-85 -184 0
-91 -189 0
-85 -183 0
-85 -185 0
-87 -186 0
-90 -184 0
-91 -187 0
-87 -188 0
-89 -189 0
-87 -183 0
-88 -189 0
-87 -185 0
-96 -160 0
-92 -161 0
-93 -155 0
-92 -159 0
-92 -156 0
-92 -158 0
-93 -161 0
-97 -157 0
-97 -155 0
-94 -161 0
-92 -155 0
-95 -158 0
-96 -156 0
-94 -157 0
-98 -161 0
-96 -161 0
-95 -156 0
-95 -155 0
-94 -160 0
-98 -156 0
-93 -159 0
-97 -158 0
-95 -159 0
-93 -156 0
-96 -159 0
-97 -161 0
-98 -155 0
-92 -160 0
-95 -157 0
-94 -158 0
-93 -157 0
-98 -160 0
-97 -159 0
-97 -160 0
-105 -111 0
-105 -110 0
-101 -108 0
-100 -112 0
-103 -108 0
-103 -106 0
-105 -112 0
-104 -110 0
-99 -110 0
-105 -107 0
-101 -112 0
-102 -110 0
-99 -112 0
-105 -106 0
-104 -106 0
-99 -111 0
-102 -108 0
-101 -107 0
-102 -106 0
-104 -111 0
-101 -106 0
-102 -111 0
-100 -108 0
-100 -110 0
-99 -106 0
-100 -111 0
-102 -112 0
-103 -110 0
-103 -109 0
-105 -108 0
-100 -106 0
-105 -109 0
-103 -111 0
-99 -109 0
-109 -121 0
-111 -122 0
-107 -126 0
-112 -120 0
-107 -124 0
-106 -126 0
-112 -125 0
-110 -122 0
-107 -123 0
-110 -123 0
-110 -124 0
-111 -126 0
-112 -126 0
-108 -126 0
-108 -120 0
-108 -124 0
-106 -121 0
-111 -124 0
-108 -125 0
-107 -121 0
-112 -121 0
-108 -123 0
-112 -123 0
-112 -122 0
-110 -126 0
-108 -121 0
-109 -126 0
-111 -123 0
-106 -124 0
-109 -125 0
-106 -123 0
-110 -125 0
-110 -120 0
-112 -124 0
-112 -149 0
-108 -148 0
-112 -152 0
-106 -152 0
-109 -152 0
-112 -153 0
-106 -148 0
-109 -150 0
-110 -152 0
-110 -149 0
-107 -152 0
-111 -148 0
-111 -149 0
-110 -150 0
-112 -150 0
-111 -152 0
-108 -149 0
-109 -151 0
-110 -154 0
-107 -150 0
-109 -154 0
-106 -150 0
-108 -152 0
-109 -153 0
-112 -148 0
-106 -153 0
-110 -153 0
-106 -149 0
-110 -151 0
-108 -150 0
-108 -153 0
-107 -153 0
-111 -151 0
-107 -149 0
-107 -167 0
-110 -163 0
-111 -162 0
-109 -163 0
-108 -163 0
-110 -165 0
-111 -166 0
-109 -168 0
-107 -162 0
-108 -164 0
-106 -168 0
-108 -167 0
-108 -168 0
-111 -167 0
-109 -162 0
-107 -163 0
-112 -166 0
-110 -167 0
-106 -162 0
-106 -167 0
-106 -166 0
-109 -165 0
-109 -166 0
-108 -166 0
-110 -166 0
-107 -165 0
-112 -167 0
-111 -168 0
-106 -165 0
-108 -162 0
-106 -164 0
-111 -163 0
-110 -162 0
-110 -168 0
-107 -174 0
-110 -172 0
-109 -171 0
-111 -173 0
-106 -173 0
-112 -174 0
-107 -172 0
-109 -169 0
-111 -171 0
-110 -173 0
-112 -172 0
-111 -169 0
-107 -170 0
-112 -169 0
-110 -174 0
-109 -175 0
-108 -171 0
-106 -172 0
-108 -175 0
-108 -170 0
-106 -170 0
-110 -175 0
-106 -175 0
-112 -170 0
-107 -173 0
-109 -172 0
-108 -173 0
-106 -169 0
-108 -174 0
-112 -173 0
-111 -172 0
-106 -174 0
-106 -171 0
-108 -169 0
-107 -213 0
-108 -217 0
-111 -212 0
-106 -213 0
-109 -212 0
-110 -215 0
-108 -214 0
-111 -216 0
-107 -211 0
-107 -217 0
-109 -213 0
-111 -211 0
-110 -212 0
-109 -217 0
-110 -217 0
-112 -213 0
-110 -214 0
-108 -212 0
-110 -216 0
-107 -212 0
-107 -215 0
-111 -214 0
-107 -214 0
-112 -214 0
-111 -217 0
-112 -215 0
-109 -216 0
-108 -215 0
-112 -216 0
-112 -212 0
-111 -213 0
-106 -214 0
-110 -211 0
-109 -214 0
-119 -159 0
-117 -160 0
-113 -155 0
-119 -155 0
-114 -161 0
-114 -156 0
-113 -159 0
-116 -156 0
-119 -156 0
-117 -161 0
-114 -159 0
-119 -157 0
-113 -161 0
-116 -159 0
-116 -158 0
-116 -161 0
-118 -161 0
-115 -157 0
-115 -161 0
-114 -160 0
-115 -155 0
-113 -156 0
-113 -157 0
-116 -157 0
-118 -158 0
-116 -155 0
-117 -159 0
-119 -161 0
-113 -160 0
-119 -160 0
-116 -160 0
-117 -156 0
-115 -160 0
-118 -157 0
-116 -176 0
-116 -178 0
-113 -179 0
-114 -182 0
-119 -180 0
-118 -176 0
-119 -181 0
-117 -177 0
-113 -178 0
-118 -182 0
-116 -181 0
-117 -182 0
-117 -178 0
-119 -182 0
-113 -182 0
-114 -177 0
-115 -179 0
-119 -179 0
-116 -180 0
-119 -176 0
-113 -180 0
-116 -179 0
-116 -182 0
-117 -176 0
-115 -178 0
-115 -182 0
-118 -179 0
-115 -180 0
-119 -178 0
-113 -181 0
-114 -178 0
-116 -177 0
-118 -177 0
-114 -180 0
-121 -182 0
-125 -177 0
-123 -176 0
-120 -181 0
-124 -181 0
-124 -177 0
-122 -179 0
-122 -176 0
-122 -182 0
-120 -180 0
-125 -176 0
-122 -180 0
-121 -179 0
-121 -178 0
-125 -178 0
-122 -181 0
-126 -180 0
-120 -177 0
-120 -182 0
-123 -178 0
-123 -179 0
-124 -180 0
-121 -180 0
-125 -180 0
-124 -178 0
-126 -176 0
-123 -180 0
-124 -182 0
-122 -178 0
-121 -177 0
-120 -178 0
-123 -182 0
-125 -179 0
-126 -178 0
-124 -198 0
-126 -201 0
-122 -198 0
-122 -199 0
-123 -198 0
-125 -202 0
-123 -199 0
-124 -201 0
-121 -203 0
-123 -201 0
-121 -200 0
-121 -201 0
-124 -199 0
-123 -203 0
-124 -203 0
-124 -197 0
-122 -202 0
-121 -199 0
-125 -198 0
-126 -199 0
-121 -197 0
-120 -197 0
-120 -201 0
-124 -202 0
-123 -197 0
-126 -203 0
-123 -202 0
-120 -198 0
-125 -200 0
-122 -203 0
-121 -202 0
-122 -201 0
-125 -197 0
-123 -200 0
-120 -231 0
-122 -226 0
-126 -228 0
-126 -231 0
-124 -228 0
-126 -229 0
-123 -230 0
-121 -230 0
-121 -226 0
-123 -225 0
-124 -225 0
-123 -229 0
-120 -230 0
-121 -229 0
-121 -228 0
-125 -226 0
-123 -228 0
-124 -231 0
-120 -227 0
-125 -225 0
-126 -225 0
-126 -227 0
-124 -229 0
-120 -226 0
-125 -231 0
-124 -230 0
-120 -229 0
-123 -231 0
-122 -228 0
-126 -226 0
-120 -225 0
-125 -228 0
-123 -226 0
-123 -227 0
-127 -215 0
-131 -212 0
-131 -211 0
-129 -212 0
-129 -213 0
-131 -214 0
-128 -214 0
-133 -211 0
-132 -217 0
-131 -213 0
-130 -215 0
-130 -214 0
-133 -217 0
-127 -213 0
-130 -212 0
-131 -216 0
-128 -212 0
-130 -211 0
-128 -216 0
-129 -214 0
-129 -215 0
-133 -213 0
-128 -211 0
-132 -215 0
-129 -217 0
-133 -216 0
-130 -213 0
-132 -214 0
-127 -212 0
-132 -212 0
-133 -212 0
-129 -216 0
-131 -217 0
-132 -216 0
-143 -173 0
-142 -174 0
-142 -169 0
-144 -174 0
-141 -170 0
-142 -173 0
-146 -175 0
-144 -169 0
-144 -173 0
-141 -175 0
-147 -173 0
-143 -171 0
-146 -174 0
-144 -172 0
-141 -171 0
-145 -172 0
-141 -172 0
-141 -174 0
-141 -173 0
-145 -173 0
-142 -172 0
-144 -175 0
-146 -172 0
-147 -170 0
-147 -171 0
-147 -174 0
-146 -169 0
-141 -169 0
-145 -171 0
-145 -170 0
-147 -172 0
-146 -173 0
-147 -175 0
-146 -170 0
-144 -195 0
-146 -194 0
-141 -195 0
-141 -191 0
-147 -190 0
-144 -193 0
-142 -192 0
-144 -191 0
-147 -195 0
-142 -194 0
-147 -193 0
-147 -191 0
-145 -196 0
-142 -193 0
-143 -193 0
-143 -190 0
-142 -195 0
-144 -196 0
-146 -191 0
-141 -193 0
-146 -196 0
-142 -190 0
-144 -194 0
-145 -190 0
-145 -194 0
-141 -196 0
-145 -191 0
-141 -194 0
-141 -192 0
-142 -196 0
-146 -192 0
-143 -192 0
-146 -190 0
-143 -195 0
-144 -223 0
-143 -224 0
-144 -220 0
-146 -224 0
-146 -222 0
-141 -219 0
-143 -219 0
-143 -218 0
-141 -220 0
-144 -224 0
-141 -224 0
-145 -221 0
-141 -222 0
-141 -223 0
-147 -222 0
-143 -222 0
-145 -222 0
-146 -221 0
-142 -222 0
-145 -218 0
-144 -219 0
-144 -222 0
-142 -223 0
-141 -221 0
-145 -223 0
-143 -220 0
-142 -224 0
-147 -220 0
-146 -223 0
-144 -218 0
-142 -221 0
-147 -218 0
-145 -224 0
-144 -221 0
-146 -235 0
-146 -233 0
-147 -233 0
-142 -236 0
-146 -237 0
-144 -238 0
-146 -232 0
-147 -237 0
-141 -234 0
-143 -234 0
-142 -237 0
-144 -234 0
-147 -238 0
-144 -236 0
-145 -234 0
-143 -235 0
-146 -238 0
-141 -233 0
-143 -236 0
-145 -235 0
-142 -232 0
-143 -237 0
-147 -234 0
-141 -235 0
-146 -236 0
-145 -237 0
-144 -232 0
-144 -237 0
-147 -235 0
-146 -234 0
-142 -235 0
-144 -233 0
-145 -238 0
-144 -235 0
-145 -242 0
-144 -240 0
-142 -243 0
-144 -241 0
-145 -245 0
-144 -243 0
-141 -239 0
-141 -241 0
-146 -245 0
-147 -240 0
-146 -241 0
-145 -240 0
-143 -241 0
-144 -242 0
-147 -245 0
-141 -240 0
-142 -241 0
-146 -240 0
-142 -242 0
-146 -244 0
-146 -239 0
-145 -243 0
-141 -242 0
-141 -245 0
-142 -244 0
-141 -243 0
-147 -241 0
-142 -245 0
-141 -244 0
-142 -240 0
-144 -245 0
-147 -243 0
-147 -239 0
-145 -241 0
-148 -225 0
-153 -225 0
-154 -226 0
-149 -226 0
-150 -231 0
-151 -226 0
-150 -227 0
-148 -228 0
-152 -226 0
-150 -225 0
-148 -226 0
-153 -227 0
-154 -227 0
-154 -230 0
-153 -231 0
-149 -230 0
-149 -227 0
-148 -230 0
-150 -226 0
-153 -226 0
-152 -231 0
-148 -227 0
-152 -229 0
-151 -230 0
-154 -229 0
-151 -225 0
-149 -228 0
-152 -225 0
-150 -229 0
-153 -230 0
-152 -230 0
-149 -231 0
-151 -229 0
-152 -227 0
-159 -187 0
-156 -184 0
-156 -189 0
-156 -183 0
-156 -187 0
-159 -189 0
-158 -184 0
-158 -188 0
-155 -183 0
-161 -185 0
-157 -186 0
-158 -186 0
-158 -183 0
-156 -188 0
-161 -188 0
-160 -188 0
-158 -185 0
-158 -187 0
-160 -186 0
-156 -186 0
-161 -187 0
-157 -184 0
-157 -189 0
-159 -186 0
-155 -185 0
-157 -183 0
-155 -188 0
-155 -186 0
-159 -184 0
-159 -188 0
-159 -185 0
-155 -189 0
-161 -186 0
-156 -185 0
-163 -179 0
-166 -179 0
-167 -178 0
-162 -178 0
-166 -177 0
-165 -176 0
-166 -178 0
-164 -181 0
-168 -176 0
-165 -178 0
-167 -177 0
-167 -180 0
-162 -177 0
-166 -180 0
-162 -179 0
-166 -182 0
-162 -181 0
-164 -178 0
-166 -176 0
-163 -182 0
-167 -179 0
-165 -180 0
-165 -177 0
-164 -176 0
-162 -180 0
-163 -181 0
-163 -178 0
-164 -179 0
-165 -179 0
-165 -181 0
-168 -177 0
-168 -178 0
-168 -182 0
-168 -180 0
-169 -186 0
-171 -183 0
-171 -188 0
-172 -187 0
-169 -184 0
-175 -189 0
-173 -189 0
-170 -183 0
-175 -185 0
-175 -184 0
-170 -186 0
-172 -188 0
-171 -189 0
-170 -185 0
-172 -185 0
-169 -188 0
-173 -183 0
-172 -184 0
-174 -184 0
-174 -185 0
-170 -187 0
-171 -185 0
-172 -186 0
-170 -188 0
-169 -187 0
-170 -184 0
-174 -187 0
-175 -188 0
-169 -185 0
-175 -187 0
-173 -188 0
-172 -183 0
-174 -188 0
-172 -189 0
-171 -214 0
-170 -217 0
-171 -215 0
-172 -211 0
-174 -213 0
-171 -213 0
-174 -211 0
-173 -215 0
-170 -215 0
-169 -215 0
-175 -211 0
-175 -217 0
-169 -214 0
-169 -213 0
-173 -214 0
-169 -217 0
-172 -212 0
-175 -213 0
-174 -215 0
-172 -216 0
-175 -216 0
-174 -216 0
-172 -217 0
-172 -214 0
-175 -215 0
-173 -217 0
-175 -214 0
-170 -211 0
-171 -216 0
-171 -211 0
-173 -211 0
-171 -212 0
-170 -214 0
-175 -212 0
-186 -240 0
-188 -243 0
-188 -242 0
-189 -244 0
-184 -242 0
-184 -240 0
-184 -239 0
-183 -241 0
-188 -240 0
-183 -243 0
-183 -245 0
-186 -243 0
-186 -239 0
-184 -244 0
-187 -243 0
-185 -239 0
-187 -240 0
-184 -241 0
-187 -245 0
-189 -243 0
-183 -244 0
-187 -239 0
-186 -245 0
-185 -243 0
-186 -244 0
-189 -245 0
-188 -245 0
-189 -241 0
-189 -240 0
-187 -242 0
-183 -242 0
-183 -239 0
-187 -244 0
-185 -245 0
-194 -208 0
-194 -206 0
-195 -210 0
-190 -208 0
-190 -207 0
-193 -209 0
-195 -206 0
-190 -205 0
-196 -205 0
-192 -209 0
-194 -210 0
-190 -210 0
-190 -206 0
-194 -209 0
-196 -209 0
-193 -204 0
-192 -206 0
-193 -207 0
-192 -208 0
-194 -204 0
-191 -209 0
-191 -210 0
-193 -205 0
-191 -208 0
-196 -207 0
-196 -204 0
-191 -207 0
-196 -210 0
-192 -204 0
-193 -210 0
-195 -209 0
-196 -208 0
-196 -206 0
-194 -205 0
